data/mip_solutions/chen_grossmann_miller/transshipment/balanced5_gurobi.sol
Elapsed time: 0.22633099556
Nodes explored: 180
Upper bound: 14.0
Lower bound: 14.0
y[0,4]=1
y[0,5]=1
y[1,1]=1
y[1,2]=1
y[1,3]=1
y[2,0]=1
y[2,1]=1
y[3,2]=1
y[4,1]=1
y[4,3]=1
y[4,4]=1
y[5,0]=1
y[5,4]=1
y[6,3]=1
q[0,4,3]=50.0
q[0,4,4]=10.0
q[0,4,5]=30.0
q[0,4,6]=100.0
q[0,4,7]=11.0
q[0,4,8]=19.0
q[0,5,11]=60.0
q[1,1,7]=49.0
q[1,1,8]=13.0
q[1,1,9]=18.0
q[1,2,5]=25.0
q[1,2,7]=31.0
q[1,2,10]=69.0
q[1,3,6]=235.0
q[2,0,3]=45.0
q[2,0,4]=15.0
q[2,0,5]=60.0
q[2,0,6]=135.0
q[2,0,7]=60.0
q[2,1,9]=30.0
q[3,2,6]=225.0
q[3,2,7]=69.0
q[3,2,8]=25.0
q[3,2,9]=125.0
q[3,2,10]=56.0
q[4,1,6]=65.0
q[4,1,7]=3.0
q[4,1,9]=17.0
q[4,3,2]=28.0
q[4,3,3]=84.0
q[4,3,4]=8.0
q[4,3,5]=22.0
q[4,3,6]=17.0
q[4,4,1]=7.0
q[4,4,4]=9.0
q[4,4,5]=46.0
q[4,4,6]=71.0
q[4,4,7]=65.0
q[5,0,1]=15.0
q[5,0,2]=30.0
q[5,4,0]=76.0
q[5,4,1]=31.0
q[5,4,2]=38.0
q[5,4,3]=7.0
q[6,3,4]=20.0
q[6,3,5]=90.0
r[0,3]=20.0
r[0,6]=10.0
r[0,8]=29.0
r[0,9]=20.0
r[0,10]=60.0
r[0,11]=60.0
r[1,6]=55.0
r[1,9]=7.0
r[1,10]=69.0
r[2,9]=15.0
r[3,8]=31.0
r[3,9]=31.0
r[3,10]=31.0
r[4,2]=27.0
r[4,3]=33.0
r[4,9]=17.0
r[5,1]=121.0
r[5,2]=75.0
r[5,3]=7.0
r[6,5]=90.0
